\ LP format - for model browsing. Use MPS format to capture full model detail.
Minimize
  0 B25(0) + 0 B27(0) + 0 B29(0) + 0 B35(0) + 0 B36(0) + 0 B37(0) + 0 B38(0)
   + 0 B40(0) + 0 B41(0) + 0 B42(0) + 0 B44(0) + 0 B45(0) + 0 B46(0)
   + 0 B47(0) + 0 B49(0) + 0 B51(0) + 0 B52(0) + 0 B54(0) + 0 B60(0)
   + 0 B61(0) + 0 B62(0) + 0 B63(0) + 0 B65(0) + 0 B66(0) + 0 B67(0)
   + 0 B69(0) + 0 B70(0) + 0 B71(0) + 0 B72(0) + 0 B74(0) + 0 B75(0)
   + 0 B76(0) + 0 B77(0) + 0 B78(0) + 0 B79(0) + 0 B80(0) + 0 B81(0)
   + 0 B82(0) + 0 B83(0) + 0 B84(0) + 0 B85(0) + 0 B87(0) + 0 B89(0)
   + 0 B92(0) + 0 B93(0) + 0 B94(0) + 0 B95(0) + 0 B96(0) + 0 B98(0)
   + 0 B102(0) + 0 B103(0) + 0 B104(0) + 0 B110(0) + 0 B111(0) + 0 B112(0)
   + 0 B113(0) + 0 B115(0) + 0 B116(0) + 0 B117(0) + 0 B119(0) + 0 B120(0)
   + 0 B121(0) + 0 B122(0) + 0 B124(0) + 0 B125(0) + 0 B126(0) + 0 B127(0)
   + 0 B128(0) + 0 B129(0) + 0 B130(0) + 0 B131(0) + 0 B132(0) + 0 B133(0)
   + 0 B134(0) + 0 B136(0) + 0 B138(0) + 0 B139(0) + 0 B140(0) + 0 B141(0)
   + 0 B143(0) + 0 B147(0) + 0 B148(0) + 0 B149(0) + 0 B150(0) + 0 B151(0)
   + 0 B152(0) + 0 B153(0) + 0 B154(0) + 0 B155(0) + 0 B160(0) + 0 B161(0)
   + 0 B162(0) + 0 B163(0) + 0 B165(0) + 0 B166(0) + 0 B167(0) + 0 B169(0)
   + 0 B170(0) + 0 B171(0) + 0 B172(0) + 0 B174(0) + 0 B175(0) + 0 B176(0)
   + 0 B177(0) + 0 B178(0) + 0 B179(0) + 0 B181(0) + 0 B185(0) + 0 B186(0)
   + 0 B187(0) + 0 B188(0) + 0 B190(0) + 0 B191(0) + 0 B192(0) + 0 B194(0)
   + 0 B195(0) + 0 B196(0) + 0 B197(0) + 0 B199(0) + 0 B200(0) + 0 B201(0)
   + 0 B202(0) + 0 B203(0) + 0 B204(0) + 0 B207(0) + 0 B210(0) + 0 B211(0)
   + 0 B212(0) + 0 B213(0) + 0 B215(0) + 0 B216(0) + 0 B217(0) + 0 B219(0)
   + 0 B220(0) + 0 B221(0) + 0 B222(0) + 0 B224(0) + 0 B225(0) + 0 B226(0)
   + 0 B227(0) + 0 B228(0) + 0 B229(0) + 0 B233(0) + 0 B235(0) + 0 B236(0)
   + 0 B237(0) + 0 B238(0) + 0 B240(0) + 0 B241(0) + 0 B242(0) + 0 B244(0)
   + 0 B245(0) + 0 B246(0) + 0 B247(0) + 0 B249(0) + 0 B250(0) + 0 B251(0)
   + 0 B252(0) + 0 B253(0) + 0 B254(0) + 0 B259(0) + 0 B260(0) + 0 B261(0)
   + 0 B262(0) + 0 B263(0) + 0 B265(0) + 0 B266(0) + 0 B267(0) + 0 B269(0)
   + 0 B270(0) + 0 B271(0) + 0 B272(0) + 0 B274(0) + 0 B275(0) + 0 B276(0)
   + 0 B277(0) + 0 B278(0) + 0 B279(0) + 0 B280(0) + 0 B281(0) + 0 B282(0)
   + 0 B283(0) + 0 B284(0) + 0 B285(0) + 0 B286(0) + 0 B288(0) + 0 B289(0)
   + 0 B290(0) + 0 B291(0) + 0 B293(0) + 0 B297(0) + 0 B298(0) + 0 B299(0)
   + 0 B300(0) + 0 B301(0) + 0 B302(0) + 0 B303(0) + 0 B304(0) + 0 B305(0)
   + 0 B306(0) + 0 B307(0) + 0 B308(0) + 0 B309(0) + 0 B310(0) + 0 B311(0)
   + 0 B312(0) + 0 B314(0) + 0 B317(0) + 0 B318(0) + 0 B319(0) + 0 B320(0)
   + 0 B321(0) + 0 B323(0) + 0 B325(0) + 0 B326(0) + 0 B327(0) + 0 B328(0)
   + 0 B329(0) + 0 B330(0) + 0 B331(0) + 0 B332(0) + 0 B333(0) + 0 B334(0)
   + 0 B336(0) + 0 B337(0) + 0 B338(0) + 0 B339(0) + 0 B340(0) + 0 B341(0)
   + 0 B343(0) + 0 B347(0) + 0 B348(0) + 0 B349(0) + 0 B350(0) + 0 B351(0)
   + 0 B352(0) + 0 B353(0) + 0 B354(0) + 0 B355(0) + 0 B356(0) + 0 B357(0)
   + 0 B358(0) + 0 B359(0) + 0 B360(0) + 0 B362(0) + 0 B363(0) + 0 B364(0)
   + 0 B367(0) + 0 B368(0) + 0 B369(0) + 0 B370(0) + 0 B371(0) + 0 B373(0)
   + 0 B375(0) + 0 B376(0) + 0 B377(0) + 0 B378(0) + 0 B379(0) + 0 B380(0)
   + 0 B381(0) + 0 B382(0) + 0 B383(0) + 0 B384(0) + 0 B385(0) + 0 B386(0)
   + 0 B387(0) + 0 B388(0) + 0 B389(0) + 0 B390(0) + 0 B391(0) + 0 B392(0)
   + 0 B394(0) + 0 B395(0) + 0 B396(0) + 0 B397(0) + 0 B399(0) + 0 B400(0)
   + 0 B401(0) + 0 B402(0) + 0 B403(0) + 0 B404(0) + 0 B405(0) + 0 B406(0)
   + 0 B407(0) + 0 B408(0) + 0 B409(0) + 0 B410(0) + 0 B411(0) + 0 B412(0)
   + 0 B413(0) + 0 B414(0) + 0 B415(0) + 0 B417(0) + 0 B418(0) + 0 B419(0)
   + 0 B420(0) + 0 B421(0) + 0 B423(0) + 0 B425(0) + 0 B426(0) + 0 B427(0)
   + 0 B428(0) + 0 B429(0) + 0 B430(0) + 0 B431(0) + 0 B432(0) + 0 B433(0)
   + 0 B434(0) + 0 B435(0) + 0 B436(0) + 0 B437(0) + 0 B438(0) + 0 B439(0)
   + 0 B441(0) + 0 B442(0) + 0 B443(0) + 0 B444(0) + 0 B445(0) + 0 B446(0)
   + 0 B448(0) + 0 B450(0) + 0 B451(0) + 0 B452(0) + 0 B453(0) + 0 B454(0)
   + 0 B455(0) + 0 B456(0) + 0 B457(0) + 0 B458(0) + 0 B459(0) + 0 B460(0)
   + 0 B461(0) + 0 B462(0) + 0 B463(0) + 0 B464(0) + 0 B465(0) + 0 B466(0)
   + 0 B467(0) + 0 B468(0) + 0 B472(0) + 0 B473(0) + 0 B474(0) + 0 B475(0)
   + 0 B476(0) + 0 B477(0) + 0 B478(0) + 0 B479(0) + 0 B480(0) + 0 B481(0)
   + 0 B482(0) + 0 B483(0) + 0 B484(0) + 0 B485(0) + 0 B486(0) + 0 B487(0)
   + 0 B488(0) + 0 B489(0) + 0 B490(0) + 0 B491(0) + 0 B492(0) + 0 B493(0)
   + 0 B494(0) + 0 B495(0) + 0 B496(0) + 0 B497(0) + 0 B499(0) + 0 B500(0)
   + 0 B501(0) + 0 B502(0) + 0 B503(0) + 0 B504(0) + 0 B505(0) + 0 B506(0)
   + 0 B507(0) + 0 B508(0) + 0 B509(0) + 0 B510(0) + 0 B511(0) + 0 B512(0)
   + 0 B513(0) + 0 B514(0) + 0 B515(0) + 0 B516(0) + 0 B518(0) + 0 B519(0)
   + 0 B522(0) + 0 B523(0) + 0 B524(0) + 0 B525(0) + 0 B526(0) + 0 B527(0)
   + 0 B528(0) + 0 B529(0) + 0 B530(0) + 0 B531(0) + 0 B532(0) + 0 B533(0)
   + 0 B534(0) + 0 B535(0) + 0 B536(0) + 0 B537(0) + 0 B538(0) + 0 B539(0)
   + 0 B540(0) + 0 B541(0) + 0 B542(0) + 0 B543(0) + 0 B544(0) + 0 B545(0)
   + 0 B547(0) + 0 B548(0) + 0 B549(0) + 0 B550(0) + 0 B551(0) + 0 B552(0)
   + 0 B553(0) + 0 B554(0) + 0 B555(0) + 0 B556(0) + 0 B557(0) + 0 B558(0)
   + 0 B559(0) + 0 B560(0) + 0 B561(0) + 0 B562(0) + 0 B563(0) + 0 B564(0)
   + 0 B565(0) + 0 B566(0) + 0 B567(0) + 0 B568(0) + 0 B569(0) + 0 B571(0)
   + 0 B572(0) + 0 B573(0) + 0 B574(0) + 0 B575(0) + 0 B576(0) + 0 B577(0)
   + 0 B578(0) + 0 B579(0) + 0 B580(0) + 0 B581(0) + 0 B582(0) + 0 B583(0)
   + 0 B584(0) + 0 B585(0) + 0 B586(0) + 0 B587(0) + 0 B588(0) + 0 B589(0)
   + 0 B590(0) + 0 B591(0) + 0 B592(0) + 0 B593(0) + 0 B594(0) + 0 B595(0)
   + 0 B596(0) + 0 B597(0) + 0 B598(0) + 0 B600(0) + 0 B601(0) + 0 B602(0)
   + 0 B603(0) + 0 B604(0) + 0 B605(0) + 0 B606(0) + 0 B607(0) + 0 B608(0)
   + 0 B609(0) + 0 B610(0) + 0 B611(0) + 0 B612(0) + 0 B613(0) + 0 B614(0)
   + 0 B615(0) + 0 B616(0) + 0 B617(0) + 0 B618(0) + 0 B619(0) + 0 B620(0)
   + 0 B621(0) + 0 B622(0) + 0 B623(0) + 0 B624(0) + 0 B625(0) + 0 B626(0)
   + 0 B627(0) + 0 B628(0) + 0 B629(0) + 0 B630(0) + 0 B631(0) + 0 B632(0)
   + 0 B633(0) + 0 B634(0) + 0 B635(0) + 0 B636(0) + 0 B637(0) + 0 B638(0)
   + 0 B639(0) + 0 B640(0) + 0 B641(0) + 0 B642(0) + 0 B643(0) + 0 B644(0)
   + 0 B645(0) + 0 B646(0) + 0 B648(0) + 0 B649(0) + I675(1)
Subject To
 c0: - 2 B0(28) - 5 B5(32) - 4 B10(17) - 2 B15(17) - 2 B20(18) - C650(29)
   - C655(36) - C660(21) - C665(20) - C670(19) + I675(1) >= 0
 c1: B0(28) = 1
 c2: B1(27) = 1
 c3: B2(16) = 1
 c4: B3(27) = 1
 c5: B4(16) = 1
 c6: B5(32) = 1
 c7: B6(32) = 1
 c8: B7(32) = 1
 c9: B8(32) = 1
 c10: B9(32) = 1
 c11: B10(17) = 1
 c12: B11(17) = 1
 c13: B12(17) = 1
 c14: B13(18) = 1
 c15: B14(24) = 1
 c16: B15(17) = 1
 c17: B16(18) = 1
 c18: B17(18) = 1
 c19: B18(23) = 1
 c20: B19(18) = 1
 c21: B20(18) = 1
 c22: B21(17) = 1
 c23: B22(18) = 1
 c24: B23(24) = 1
 c25: B24(18) = 1
 c26: - 250 B0(28) + C650(29) <= 0
 c27: - 250 B1(27) + C651(31) <= 0
 c28: - 250 B2(16) + C652(16) <= 0
 c29: - 250 B3(27) + C653(28) <= 0
 c30: - 250 B4(16) + C654(16) <= 0
 c31: - 250 B5(32) + C655(36) <= 0
 c32: - 250 B6(32) + C656(32) <= 0
 c33: - 250 B7(32) + C657(32) <= 0
 c34: - 250 B8(32) + C658(32) <= 0
 c35: - 250 B9(32) + C659(32) <= 0
 c36: - 250 B10(17) + C660(21) <= 0
 c37: - 250 B11(17) + C661(18) <= 0
 c38: - 250 B12(17) + C662(19) <= 0
 c39: - 250 B13(18) + C663(18) <= 0
 c40: - 250 B14(24) + C664(24) <= 0
 c41: - 250 B15(17) + C665(20) <= 0
 c42: - 250 B16(18) + C666(19) <= 0
 c43: - 250 B17(18) + C667(19) <= 0
 c44: - 250 B18(23) + C668(24) <= 0
 c45: - 250 B19(18) + C669(18) <= 0
 c46: - 250 B20(18) + C670(19) <= 0
 c47: - 250 B21(17) + C671(19) <= 0
 c48: - 250 B22(18) + C672(19) <= 0
 c49: - 250 B23(24) + C673(25) <= 0
 c50: - 250 B24(18) + C674(18) <= 0
 c51: - 4 B1(27) + C650(29) - C651(31) >= 0
 c52: - 5 B2(16) + C651(31) - C652(16) >= 0
 c53: - 2 B3(27) + C651(31) - C653(28) >= 0
 c54: - 4 B4(16) + C651(31) - C654(16) >= 0
 c55: - 4 B6(32) + C655(36) - C656(32) >= 0
 c56: - 3 B7(32) + C655(36) - C657(32) >= 0
 c57: - 5 B8(32) + C655(36) - C658(32) >= 0
 c58: - 5 B9(32) + C655(36) - C659(32) >= 0
 c59: - 2 B11(17) + C660(21) - C661(18) >= 0
 c60: - 2 B12(17) + C660(21) - C662(19) >= 0
 c61: - 2 B13(18) + C662(19) - C663(18) >= 0
 c62: - 5 B14(24) + C660(21) - C664(24) >= 0
 c63: - 5 B16(18) + C665(20) - C666(19) >= 0
 c64: - 4 B17(18) + C665(20) - C667(19) >= 0
 c65: - 3 B18(23) + C667(19) - C668(24) >= 0
 c66: - 4 B19(18) + C666(19) - C669(18) >= 0
 c67: - 3 B21(17) + C670(19) - C671(19) >= 0
 c68: - 3 B22(18) + C671(19) - C672(19) >= 0
 c69: - 3 B23(24) + C672(19) - C673(25) >= 0
 c70: - 3 B24(18) + C673(25) - C674(18) >= 0
 c71: - 250 B0(28) - 250 B1(27) + 250 B26(2) - C650(29) + C651(31) >= -496
 c72: - 250 B0(28) - 250 B1(27) - 250 B26(2) + C650(29) - C651(31) >= -737
 c73: - 250 B0(28) - 250 B3(27) + 250 B28(2) - C650(29) + C653(28) >= -483
 c74: - 250 B0(28) - 250 B3(27) - 250 B28(2) + C650(29) - C653(28) >= -739
 c75: - 250 B0(28) - 250 B5(32) + 250 B30(2) - C650(29) + C655(36) >= -494
 c76: - 250 B0(28) - 250 B5(32) - 250 B30(2) + C650(29) - C655(36) >= -733
 c77: - 250 B0(28) - 250 B6(32) + 250 B31(2) - C650(29) + C656(32) >= -478
 c78: - 250 B0(28) - 250 B6(32) - 250 B31(2) + C650(29) - C656(32) >= -726
 c79: - 250 B0(28) - 250 B7(32) + 250 B32(2) - C650(29) + C657(32) >= -494
 c80: - 250 B0(28) - 250 B7(32) - 250 B32(2) + C650(29) - C657(32) >= -738
 c81: - 250 B0(28) - 250 B8(32) + 250 B33(2) - C650(29) + C658(32) >= -483
 c82: - 250 B0(28) - 250 B8(32) - 250 B33(2) + C650(29) - C658(32) >= -737
 c83: - 250 B0(28) - 250 B9(32) + 250 B34(2) - C650(29) + C659(32) >= -478
 c84: - 250 B0(28) - 250 B9(32) - 250 B34(2) + C650(29) - C659(32) >= -739
 c85: - 250 B0(28) - 250 B14(24) + 250 B39(2) - C650(29) + C664(24)
   >= -490
 c86: - 250 B0(28) - 250 B14(24) - 250 B39(2) + C650(29) - C664(24)
   >= -737
 c87: - 250 B0(28) - 250 B18(23) + 250 B43(2) - C650(29) + C668(24)
   >= -473
 c88: - 250 B0(28) - 250 B18(23) - 250 B43(2) + C650(29) - C668(24)
   >= -742
 c89: - 250 B0(28) - 250 B23(24) + 250 B48(2) - C650(29) + C673(25)
   >= -489
 c90: - 250 B0(28) - 250 B23(24) - 250 B48(2) + C650(29) - C673(25)
   >= -737
 c91: - 250 B0(28) - 250 B1(27) + 250 B50(2) + C650(29) - C651(31) >= -487
 c92: - 250 B0(28) - 250 B1(27) - 250 B50(2) - C650(29) + C651(31) >= -746
 c93: - 250 B1(27) - 250 B3(27) + 250 B53(2) - C651(31) + C653(28) >= -492
 c94: - 250 B1(27) - 250 B3(27) - 250 B53(2) + C651(31) - C653(28) >= -733
 c95: - 250 B1(27) - 250 B5(32) + 250 B55(2) - C651(31) + C655(36) >= -488
 c96: - 250 B1(27) - 250 B5(32) - 250 B55(2) + C651(31) - C655(36) >= -740
 c97: - 250 B1(27) - 250 B6(32) + 250 B56(2) - C651(31) + C656(32) >= -493
 c98: - 250 B1(27) - 250 B6(32) - 250 B56(2) + C651(31) - C656(32) >= -726
 c99: - 250 B1(27) - 250 B7(32) + 250 B57(2) - C651(31) + C657(32) >= -492
 c100: - 250 B1(27) - 250 B7(32) - 250 B57(2) + C651(31) - C657(32)
   >= -732
 c101: - 250 B1(27) - 250 B8(32) + 250 B58(2) - C651(31) + C658(32)
   >= -491
 c102: - 250 B1(27) - 250 B8(32) - 250 B58(2) + C651(31) - C658(32)
   >= -736
 c103: - 250 B1(27) - 250 B9(32) + 250 B59(2) - C651(31) + C659(32)
   >= -476
 c104: - 250 B1(27) - 250 B9(32) - 250 B59(2) + C651(31) - C659(32)
   >= -741
 c105: - 250 B1(27) - 250 B14(24) + 250 B64(2) - C651(31) + C664(24)
   >= -481
 c106: - 250 B1(27) - 250 B14(24) - 250 B64(2) + C651(31) - C664(24)
   >= -740
 c107: - 250 B1(27) - 250 B18(23) + 250 B68(2) - C651(31) + C668(24)
   >= -486
 c108: - 250 B1(27) - 250 B18(23) - 250 B68(2) + C651(31) - C668(24)
   >= -737
 c109: - 250 B1(27) - 250 B23(24) + 250 B73(2) - C651(31) + C673(25)
   >= -476
 c110: - 250 B1(27) - 250 B23(24) - 250 B73(2) + C651(31) - C673(25)
   >= -737
 c111: - 250 B2(16) - 250 B11(17) + 250 B86(2) - C652(16) + C661(18)
   >= -489
 c112: - 250 B2(16) - 250 B11(17) - 250 B86(2) + C652(16) - C661(18)
   >= -723
 c113: - 250 B2(16) - 250 B13(18) + 250 B88(2) - C652(16) + C663(18)
   >= -489
 c114: - 250 B2(16) - 250 B13(18) - 250 B88(2) + C652(16) - C663(18)
   >= -733
 c115: - 250 B2(16) - 250 B15(17) + 250 B90(2) - C652(16) + C665(20)
   >= -479
 c116: - 250 B2(16) - 250 B15(17) - 250 B90(2) + C652(16) - C665(20)
   >= -744
 c117: - 250 B2(16) - 250 B16(18) + 250 B91(2) - C652(16) + C666(19)
   >= -489
 c118: - 250 B2(16) - 250 B16(18) - 250 B91(2) + C652(16) - C666(19)
   >= -736
 c119: - 250 B2(16) - 250 B22(18) + 250 B97(2) - C652(16) + C672(19)
   >= -491
 c120: - 250 B2(16) - 250 B22(18) - 250 B97(2) + C652(16) - C672(19)
   >= -732
 c121: - 250 B2(16) - 250 B24(18) + 250 B99(2) - C652(16) + C674(18)
   >= -492
 c122: - 250 B2(16) - 250 B24(18) - 250 B99(2) + C652(16) - C674(18)
   >= -727
 c123: - 250 B0(28) - 250 B3(27) + 250 B100(2) + C650(29) - C653(28)
   >= -489
 c124: - 250 B0(28) - 250 B3(27) - 250 B100(2) - C650(29) + C653(28)
   >= -733
 c125: - 250 B1(27) - 250 B3(27) + 250 B101(2) + C651(31) - C653(28)
   >= -483
 c126: - 250 B1(27) - 250 B3(27) - 250 B101(2) - C651(31) + C653(28)
   >= -742
 c127: - 250 B3(27) - 250 B5(32) + 250 B105(2) - C653(28) + C655(36)
   >= -492
 c128: - 250 B3(27) - 250 B5(32) - 250 B105(2) + C653(28) - C655(36)
   >= -743
 c129: - 250 B3(27) - 250 B6(32) + 250 B106(2) - C653(28) + C656(32)
   >= -496
 c130: - 250 B3(27) - 250 B6(32) - 250 B106(2) + C653(28) - C656(32)
   >= -731
 c131: - 250 B3(27) - 250 B7(32) + 250 B107(2) - C653(28) + C657(32)
   >= -496
 c132: - 250 B3(27) - 250 B7(32) - 250 B107(2) + C653(28) - C657(32)
   >= -739
 c133: - 250 B3(27) - 250 B8(32) + 250 B108(2) - C653(28) + C658(32)
   >= -494
 c134: - 250 B3(27) - 250 B8(32) - 250 B108(2) + C653(28) - C658(32)
   >= -725
 c135: - 250 B3(27) - 250 B9(32) + 250 B109(2) - C653(28) + C659(32)
   >= -490
 c136: - 250 B3(27) - 250 B9(32) - 250 B109(2) + C653(28) - C659(32)
   >= -743
 c137: - 250 B3(27) - 250 B14(24) + 250 B114(2) - C653(28) + C664(24)
   >= -492
 c138: - 250 B3(27) - 250 B14(24) - 250 B114(2) + C653(28) - C664(24)
   >= -729
 c139: - 250 B3(27) - 250 B18(23) + 250 B118(2) - C653(28) + C668(24)
   >= -496
 c140: - 250 B3(27) - 250 B18(23) - 250 B118(2) + C653(28) - C668(24)
   >= -727
 c141: - 250 B3(27) - 250 B23(24) + 250 B123(2) - C653(28) + C673(25)
   >= -492
 c142: - 250 B3(27) - 250 B23(24) - 250 B123(2) + C653(28) - C673(25)
   >= -739
 c143: - 250 B4(16) - 250 B10(17) + 250 B135(2) - C654(16) + C660(21)
   >= -492
 c144: - 250 B4(16) - 250 B10(17) - 250 B135(2) + C654(16) - C660(21)
   >= -738
 c145: - 250 B4(16) - 250 B12(17) + 250 B137(2) - C654(16) + C662(19)
   >= -491
 c146: - 250 B4(16) - 250 B12(17) - 250 B137(2) + C654(16) - C662(19)
   >= -736
 c147: - 250 B4(16) - 250 B17(18) + 250 B142(2) - C654(16) + C667(19)
   >= -486
 c148: - 250 B4(16) - 250 B17(18) - 250 B142(2) + C654(16) - C667(19)
   >= -726
 c149: - 250 B4(16) - 250 B19(18) + 250 B144(2) - C654(16) + C669(18)
   >= -490
 c150: - 250 B4(16) - 250 B19(18) - 250 B144(2) + C654(16) - C669(18)
   >= -738
 c151: - 250 B4(16) - 250 B20(18) + 250 B145(2) - C654(16) + C670(19)
   >= -492
 c152: - 250 B4(16) - 250 B20(18) - 250 B145(2) + C654(16) - C670(19)
   >= -732
 c153: - 250 B4(16) - 250 B21(17) + 250 B146(2) - C654(16) + C671(19)
   >= -484
 c154: - 250 B4(16) - 250 B21(17) - 250 B146(2) + C654(16) - C671(19)
   >= -727
 c155: - 250 B5(32) - 250 B6(32) + 250 B156(2) - C655(36) + C656(32)
   >= -483
 c156: - 250 B5(32) - 250 B6(32) - 250 B156(2) + C655(36) - C656(32)
   >= -737
 c157: - 250 B5(32) - 250 B7(32) + 250 B157(2) - C655(36) + C657(32)
   >= -483
 c158: - 250 B5(32) - 250 B7(32) - 250 B157(2) + C655(36) - C657(32)
   >= -744
 c159: - 250 B5(32) - 250 B8(32) + 250 B158(2) - C655(36) + C658(32)
   >= -491
 c160: - 250 B5(32) - 250 B8(32) - 250 B158(2) + C655(36) - C658(32)
   >= -735
 c161: - 250 B5(32) - 250 B9(32) + 250 B159(2) - C655(36) + C659(32)
   >= -489
 c162: - 250 B5(32) - 250 B9(32) - 250 B159(2) + C655(36) - C659(32)
   >= -741
 c163: - 250 B5(32) - 250 B14(24) + 250 B164(2) - C655(36) + C664(24)
   >= -483
 c164: - 250 B5(32) - 250 B14(24) - 250 B164(2) + C655(36) - C664(24)
   >= -739
 c165: - 250 B5(32) - 250 B18(23) + 250 B168(2) - C655(36) + C668(24)
   >= -490
 c166: - 250 B5(32) - 250 B18(23) - 250 B168(2) + C655(36) - C668(24)
   >= -732
 c167: - 250 B5(32) - 250 B23(24) + 250 B173(2) - C655(36) + C673(25)
   >= -491
 c168: - 250 B5(32) - 250 B23(24) - 250 B173(2) + C655(36) - C673(25)
   >= -739
 c169: - 250 B5(32) - 250 B6(32) + 250 B180(2) + C655(36) - C656(32)
   >= -487
 c170: - 250 B5(32) - 250 B6(32) - 250 B180(2) - C655(36) + C656(32)
   >= -733
 c171: - 250 B6(32) - 250 B7(32) + 250 B182(2) - C656(32) + C657(32)
   >= -488
 c172: - 250 B6(32) - 250 B7(32) - 250 B182(2) + C656(32) - C657(32)
   >= -738
 c173: - 250 B6(32) - 250 B8(32) + 250 B183(2) - C656(32) + C658(32)
   >= -490
 c174: - 250 B6(32) - 250 B8(32) - 250 B183(2) + C656(32) - C658(32)
   >= -740
 c175: - 250 B6(32) - 250 B9(32) + 250 B184(2) - C656(32) + C659(32)
   >= -476
 c176: - 250 B6(32) - 250 B9(32) - 250 B184(2) + C656(32) - C659(32)
   >= -730
 c177: - 250 B6(32) - 250 B14(24) + 250 B189(2) - C656(32) + C664(24)
   >= -490
 c178: - 250 B6(32) - 250 B14(24) - 250 B189(2) + C656(32) - C664(24)
   >= -737
 c179: - 250 B6(32) - 250 B18(23) + 250 B193(2) - C656(32) + C668(24)
   >= -480
 c180: - 250 B6(32) - 250 B18(23) - 250 B193(2) + C656(32) - C668(24)
   >= -735
 c181: - 250 B6(32) - 250 B23(24) + 250 B198(2) - C656(32) + C673(25)
   >= -476
 c182: - 250 B6(32) - 250 B23(24) - 250 B198(2) + C656(32) - C673(25)
   >= -722
 c183: - 250 B5(32) - 250 B7(32) + 250 B205(2) + C655(36) - C657(32)
   >= -494
 c184: - 250 B5(32) - 250 B7(32) - 250 B205(2) - C655(36) + C657(32)
   >= -733
 c185: - 250 B6(32) - 250 B7(32) + 250 B206(2) + C656(32) - C657(32)
   >= -488
 c186: - 250 B6(32) - 250 B7(32) - 250 B206(2) - C656(32) + C657(32)
   >= -738
 c187: - 250 B7(32) - 250 B8(32) + 250 B208(2) - C657(32) + C658(32)
   >= -477
 c188: - 250 B7(32) - 250 B8(32) - 250 B208(2) + C657(32) - C658(32)
   >= -733
 c189: - 250 B7(32) - 250 B9(32) + 250 B209(2) - C657(32) + C659(32)
   >= -472
 c190: - 250 B7(32) - 250 B9(32) - 250 B209(2) + C657(32) - C659(32)
   >= -733
 c191: - 250 B7(32) - 250 B14(24) + 250 B214(2) - C657(32) + C664(24)
   >= -492
 c192: - 250 B7(32) - 250 B14(24) - 250 B214(2) + C657(32) - C664(24)
   >= -725
 c193: - 250 B7(32) - 250 B18(23) + 250 B218(2) - C657(32) + C668(24)
   >= -472
 c194: - 250 B7(32) - 250 B18(23) - 250 B218(2) + C657(32) - C668(24)
   >= -732
 c195: - 250 B7(32) - 250 B23(24) + 250 B223(2) - C657(32) + C673(25)
   >= -494
 c196: - 250 B7(32) - 250 B23(24) - 250 B223(2) + C657(32) - C673(25)
   >= -727
 c197: - 250 B5(32) - 250 B8(32) + 250 B230(2) + C655(36) - C658(32)
   >= -485
 c198: - 250 B5(32) - 250 B8(32) - 250 B230(2) - C655(36) + C658(32)
   >= -741
 c199: - 250 B6(32) - 250 B8(32) + 250 B231(2) + C656(32) - C658(32)
   >= -490
 c200: - 250 B6(32) - 250 B8(32) - 250 B231(2) - C656(32) + C658(32)
   >= -740
 c201: - 250 B7(32) - 250 B8(32) + 250 B232(2) + C657(32) - C658(32)
   >= -483
 c202: - 250 B7(32) - 250 B8(32) - 250 B232(2) - C657(32) + C658(32)
   >= -727
 c203: - 250 B8(32) - 250 B9(32) + 250 B234(2) - C658(32) + C659(32)
   >= -483
 c204: - 250 B8(32) - 250 B9(32) - 250 B234(2) + C658(32) - C659(32)
   >= -741
 c205: - 250 B8(32) - 250 B14(24) + 250 B239(2) - C658(32) + C664(24)
   >= -485
 c206: - 250 B8(32) - 250 B14(24) - 250 B239(2) + C658(32) - C664(24)
   >= -741
 c207: - 250 B8(32) - 250 B18(23) + 250 B243(2) - C658(32) + C668(24)
   >= -491
 c208: - 250 B8(32) - 250 B18(23) - 250 B243(2) + C658(32) - C668(24)
   >= -743
 c209: - 250 B8(32) - 250 B23(24) + 250 B248(2) - C658(32) + C673(25)
   >= -475
 c210: - 250 B8(32) - 250 B23(24) - 250 B248(2) + C658(32) - C673(25)
   >= -745
 c211: - 250 B5(32) - 250 B9(32) + 250 B255(2) + C655(36) - C659(32)
   >= -491
 c212: - 250 B5(32) - 250 B9(32) - 250 B255(2) - C655(36) + C659(32)
   >= -739
 c213: - 250 B6(32) - 250 B9(32) + 250 B256(2) + C656(32) - C659(32)
   >= -480
 c214: - 250 B6(32) - 250 B9(32) - 250 B256(2) - C656(32) + C659(32)
   >= -726
 c215: - 250 B7(32) - 250 B9(32) + 250 B257(2) + C657(32) - C659(32)
   >= -483
 c216: - 250 B7(32) - 250 B9(32) - 250 B257(2) - C657(32) + C659(32)
   >= -722
 c217: - 250 B8(32) - 250 B9(32) + 250 B258(2) + C658(32) - C659(32)
   >= -491
 c218: - 250 B8(32) - 250 B9(32) - 250 B258(2) - C658(32) + C659(32)
   >= -733
 c219: - 250 B9(32) - 250 B14(24) + 250 B264(2) - C659(32) + C664(24)
   >= -493
 c220: - 250 B9(32) - 250 B14(24) - 250 B264(2) + C659(32) - C664(24)
   >= -736
 c221: - 250 B9(32) - 250 B18(23) + 250 B268(2) - C659(32) + C668(24)
   >= -480
 c222: - 250 B9(32) - 250 B18(23) - 250 B268(2) + C659(32) - C668(24)
   >= -735
 c223: - 250 B9(32) - 250 B23(24) + 250 B273(2) - C659(32) + C673(25)
   >= -491
 c224: - 250 B9(32) - 250 B23(24) - 250 B273(2) + C659(32) - C673(25)
   >= -735
 c225: - 250 B10(17) - 250 B12(17) + 250 B287(2) - C660(21) + C662(19)
   >= -490
 c226: - 250 B10(17) - 250 B12(17) - 250 B287(2) + C660(21) - C662(19)
   >= -742
 c227: - 250 B10(17) - 250 B17(18) + 250 B292(2) - C660(21) + C667(19)
   >= -494
 c228: - 250 B10(17) - 250 B17(18) - 250 B292(2) + C660(21) - C667(19)
   >= -737
 c229: - 250 B10(17) - 250 B19(18) + 250 B294(2) - C660(21) + C669(18)
   >= -488
 c230: - 250 B10(17) - 250 B19(18) - 250 B294(2) + C660(21) - C669(18)
   >= -744
 c231: - 250 B10(17) - 250 B20(18) + 250 B295(2) - C660(21) + C670(19)
   >= -476
 c232: - 250 B10(17) - 250 B20(18) - 250 B295(2) + C660(21) - C670(19)
   >= -723
 c233: - 250 B10(17) - 250 B21(17) + 250 B296(2) - C660(21) + C671(19)
   >= -490
 c234: - 250 B10(17) - 250 B21(17) - 250 B296(2) + C660(21) - C671(19)
   >= -732
 c235: - 250 B11(17) - 250 B13(18) + 250 B313(2) - C661(18) + C663(18)
   >= -489
 c236: - 250 B11(17) - 250 B13(18) - 250 B313(2) + C661(18) - C663(18)
   >= -742
 c237: - 250 B11(17) - 250 B15(17) + 250 B315(2) - C661(18) + C665(20)
   >= -488
 c238: - 250 B11(17) - 250 B15(17) - 250 B315(2) + C661(18) - C665(20)
   >= -740
 c239: - 250 B11(17) - 250 B16(18) + 250 B316(2) - C661(18) + C666(19)
   >= -478
 c240: - 250 B11(17) - 250 B16(18) - 250 B316(2) + C661(18) - C666(19)
   >= -736
 c241: - 250 B11(17) - 250 B22(18) + 250 B322(2) - C661(18) + C672(19)
   >= -495
 c242: - 250 B11(17) - 250 B22(18) - 250 B322(2) + C661(18) - C672(19)
   >= -727
 c243: - 250 B11(17) - 250 B24(18) + 250 B324(2) - C661(18) + C674(18)
   >= -490
 c244: - 250 B11(17) - 250 B24(18) - 250 B324(2) + C661(18) - C674(18)
   >= -737
 c245: - 250 B10(17) - 250 B12(17) + 250 B335(2) + C660(21) - C662(19)
   >= -492
 c246: - 250 B10(17) - 250 B12(17) - 250 B335(2) - C660(21) + C662(19)
   >= -740
 c247: - 250 B12(17) - 250 B17(18) + 250 B342(2) - C662(19) + C667(19)
   >= -494
 c248: - 250 B12(17) - 250 B17(18) - 250 B342(2) + C662(19) - C667(19)
   >= -743
 c249: - 250 B12(17) - 250 B19(18) + 250 B344(2) - C662(19) + C669(18)
   >= -492
 c250: - 250 B12(17) - 250 B19(18) - 250 B344(2) + C662(19) - C669(18)
   >= -743
 c251: - 250 B12(17) - 250 B20(18) + 250 B345(2) - C662(19) + C670(19)
   >= -478
 c252: - 250 B12(17) - 250 B20(18) - 250 B345(2) + C662(19) - C670(19)
   >= -738
 c253: - 250 B12(17) - 250 B21(17) + 250 B346(2) - C662(19) + C671(19)
   >= -483
 c254: - 250 B12(17) - 250 B21(17) - 250 B346(2) + C662(19) - C671(19)
   >= -745
 c255: - 250 B11(17) - 250 B13(18) + 250 B361(2) + C661(18) - C663(18)
   >= -492
 c256: - 250 B11(17) - 250 B13(18) - 250 B361(2) - C661(18) + C663(18)
   >= -739
 c257: - 250 B13(18) - 250 B15(17) + 250 B365(2) - C663(18) + C665(20)
   >= -494
 c258: - 250 B13(18) - 250 B15(17) - 250 B365(2) + C663(18) - C665(20)
   >= -743
 c259: - 250 B13(18) - 250 B16(18) + 250 B366(2) - C663(18) + C666(19)
   >= -494
 c260: - 250 B13(18) - 250 B16(18) - 250 B366(2) + C663(18) - C666(19)
   >= -733
 c261: - 250 B13(18) - 250 B22(18) + 250 B372(2) - C663(18) + C672(19)
   >= -483
 c262: - 250 B13(18) - 250 B22(18) - 250 B372(2) + C663(18) - C672(19)
   >= -744
 c263: - 250 B13(18) - 250 B24(18) + 250 B374(2) - C663(18) + C674(18)
   >= -486
 c264: - 250 B13(18) - 250 B24(18) - 250 B374(2) + C663(18) - C674(18)
   >= -739
 c265: - 250 B14(24) - 250 B18(23) + 250 B393(2) - C664(24) + C668(24)
   >= -493
 c266: - 250 B14(24) - 250 B18(23) - 250 B393(2) + C664(24) - C668(24)
   >= -744
 c267: - 250 B14(24) - 250 B23(24) + 250 B398(2) - C664(24) + C673(25)
   >= -492
 c268: - 250 B14(24) - 250 B23(24) - 250 B398(2) + C664(24) - C673(25)
   >= -745
 c269: - 250 B15(17) - 250 B16(18) + 250 B416(2) - C665(20) + C666(19)
   >= -478
 c270: - 250 B15(17) - 250 B16(18) - 250 B416(2) + C665(20) - C666(19)
   >= -739
 c271: - 250 B15(17) - 250 B22(18) + 250 B422(2) - C665(20) + C672(19)
   >= -483
 c272: - 250 B15(17) - 250 B22(18) - 250 B422(2) + C665(20) - C672(19)
   >= -741
 c273: - 250 B15(17) - 250 B24(18) + 250 B424(2) - C665(20) + C674(18)
   >= -490
 c274: - 250 B15(17) - 250 B24(18) - 250 B424(2) + C665(20) - C674(18)
   >= -742
 c275: - 250 B15(17) - 250 B16(18) + 250 B440(2) + C665(20) - C666(19)
   >= -489
 c276: - 250 B15(17) - 250 B16(18) - 250 B440(2) - C665(20) + C666(19)
   >= -728
 c277: - 250 B16(18) - 250 B22(18) + 250 B447(2) - C666(19) + C672(19)
   >= -470
 c278: - 250 B16(18) - 250 B22(18) - 250 B447(2) + C666(19) - C672(19)
   >= -735
 c279: - 250 B16(18) - 250 B24(18) + 250 B449(2) - C666(19) + C674(18)
   >= -491
 c280: - 250 B16(18) - 250 B24(18) - 250 B449(2) + C666(19) - C674(18)
   >= -727
 c281: - 250 B17(18) - 250 B19(18) + 250 B469(2) - C667(19) + C669(18)
   >= -493
 c282: - 250 B17(18) - 250 B19(18) - 250 B469(2) + C667(19) - C669(18)
   >= -742
 c283: - 250 B17(18) - 250 B20(18) + 250 B470(2) - C667(19) + C670(19)
   >= -476
 c284: - 250 B17(18) - 250 B20(18) - 250 B470(2) + C667(19) - C670(19)
   >= -738
 c285: - 250 B17(18) - 250 B21(17) + 250 B471(2) - C667(19) + C671(19)
   >= -487
 c286: - 250 B17(18) - 250 B21(17) - 250 B471(2) + C667(19) - C671(19)
   >= -739
 c287: - 250 B18(23) - 250 B23(24) + 250 B498(2) - C668(24) + C673(25)
   >= -481
 c288: - 250 B18(23) - 250 B23(24) - 250 B498(2) + C668(24) - C673(25)
   >= -732
 c289: - 250 B17(18) - 250 B19(18) + 250 B517(2) + C667(19) - C669(18)
   >= -492
 c290: - 250 B17(18) - 250 B19(18) - 250 B517(2) - C667(19) + C669(18)
   >= -743
 c291: - 250 B19(18) - 250 B20(18) + 250 B520(2) - C669(18) + C670(19)
   >= -480
 c292: - 250 B19(18) - 250 B20(18) - 250 B520(2) + C669(18) - C670(19)
   >= -738
 c293: - 250 B19(18) - 250 B21(17) + 250 B521(2) - C669(18) + C671(19)
   >= -490
 c294: - 250 B19(18) - 250 B21(17) - 250 B521(2) + C669(18) - C671(19)
   >= -727
 c295: - 250 B20(18) - 250 B21(17) + 250 B546(2) - C670(19) + C671(19)
   >= -483
 c296: - 250 B20(18) - 250 B21(17) - 250 B546(2) + C670(19) - C671(19)
   >= -741
 c297: - 250 B20(18) - 250 B21(17) + 250 B570(2) + C670(19) - C671(19)
   >= -491
 c298: - 250 B20(18) - 250 B21(17) - 250 B570(2) - C670(19) + C671(19)
   >= -733
 c299: - 250 B22(18) - 250 B24(18) + 250 B599(2) - C672(19) + C674(18)
   >= -477
 c300: - 250 B22(18) - 250 B24(18) - 250 B599(2) + C672(19) - C674(18)
   >= -743
 c301: - 250 B22(18) - 250 B24(18) + 250 B647(2) + C672(19) - C674(18)
   >= -493
 c302: - 250 B22(18) - 250 B24(18) - 250 B647(2) - C672(19) + C674(18)
   >= -727
 c303: - 2 B0(28) + C650(29) >= 0
 c304: C650(29) >= 0
 c305: C651(31) >= 0
 c306: C651(31) >= 0
 c307: - B2(16) + C652(16) >= 0
 c308: C652(16) >= 0
 c309: C653(28) >= 0
 c310: C653(28) >= 0
 c311: - 3 B4(16) + C654(16) >= 0
 c312: C654(16) >= 0
 c313: - 3 B5(32) + C655(36) >= 0
 c314: C655(36) >= 0
 c315: - 2 B6(32) + C656(32) >= 0
 c316: C656(32) >= 0
 c317: - B7(32) + C657(32) >= 0
 c318: C657(32) >= 0
 c319: - 3 B8(32) + C658(32) >= 0
 c320: C658(32) >= 0
 c321: - 2 B9(32) + C659(32) >= 0
 c322: C659(32) >= 0
 c323: C660(21) >= 0
 c324: C660(21) >= 0
 c325: C661(18) >= 0
 c326: C661(18) >= 0
 c327: C662(19) >= 0
 c328: C662(19) >= 0
 c329: - 3 B13(18) + C663(18) >= 0
 c330: C663(18) >= 0
 c331: - 2 B14(24) + C664(24) >= 0
 c332: C664(24) >= 0
 c333: C665(20) >= 0
 c334: C665(20) >= 0
 c335: - B16(18) + C666(19) >= 0
 c336: C666(19) >= 0
 c337: - B17(18) + C667(19) >= 0
 c338: C667(19) >= 0
 c339: C668(24) >= 0
 c340: C668(24) >= 0
 c341: - 3 B19(18) + C669(18) >= 0
 c342: C669(18) >= 0
 c343: - 2 B20(18) + C670(19) >= 0
 c344: C670(19) >= 0
 c345: C671(19) >= 0
 c346: C671(19) >= 0
 c347: - B22(18) + C672(19) >= 0
 c348: C672(19) >= 0
 c349: - 3 B23(24) + C673(25) >= 0
 c350: C673(25) >= 0
 c351: - 3 B24(18) + C674(18) >= 0
 c352: C674(18) >= 0
Bounds
Binaries
 B0(28) B1(27) B2(16) B3(27) B4(16) B5(32) B6(32) B7(32) B8(32) B9(32)
 B10(17) B11(17) B12(17) B13(18) B14(24) B15(17) B16(18) B17(18) B18(23)
 B19(18) B20(18) B21(17) B22(18) B23(24) B24(18) B25(0) B26(2) B27(0)
 B28(2) B29(0) B30(2) B31(2) B32(2) B33(2) B34(2) B35(0) B36(0) B37(0)
 B38(0) B39(2) B40(0) B41(0) B42(0) B43(2) B44(0) B45(0) B46(0) B47(0)
 B48(2) B49(0) B50(2) B51(0) B52(0) B53(2) B54(0) B55(2) B56(2) B57(2)
 B58(2) B59(2) B60(0) B61(0) B62(0) B63(0) B64(2) B65(0) B66(0) B67(0)
 B68(2) B69(0) B70(0) B71(0) B72(0) B73(2) B74(0) B75(0) B76(0) B77(0)
 B78(0) B79(0) B80(0) B81(0) B82(0) B83(0) B84(0) B85(0) B86(2) B87(0)
 B88(2) B89(0) B90(2) B91(2) B92(0) B93(0) B94(0) B95(0) B96(0) B97(2)
 B98(0) B99(2) B100(2) B101(2) B102(0) B103(0) B104(0) B105(2) B106(2)
 B107(2) B108(2) B109(2) B110(0) B111(0) B112(0) B113(0) B114(2) B115(0)
 B116(0) B117(0) B118(2) B119(0) B120(0) B121(0) B122(0) B123(2) B124(0)
 B125(0) B126(0) B127(0) B128(0) B129(0) B130(0) B131(0) B132(0) B133(0)
 B134(0) B135(2) B136(0) B137(2) B138(0) B139(0) B140(0) B141(0) B142(2)
 B143(0) B144(2) B145(2) B146(2) B147(0) B148(0) B149(0) B150(0) B151(0)
 B152(0) B153(0) B154(0) B155(0) B156(2) B157(2) B158(2) B159(2) B160(0)
 B161(0) B162(0) B163(0) B164(2) B165(0) B166(0) B167(0) B168(2) B169(0)
 B170(0) B171(0) B172(0) B173(2) B174(0) B175(0) B176(0) B177(0) B178(0)
 B179(0) B180(2) B181(0) B182(2) B183(2) B184(2) B185(0) B186(0) B187(0)
 B188(0) B189(2) B190(0) B191(0) B192(0) B193(2) B194(0) B195(0) B196(0)
 B197(0) B198(2) B199(0) B200(0) B201(0) B202(0) B203(0) B204(0) B205(2)
 B206(2) B207(0) B208(2) B209(2) B210(0) B211(0) B212(0) B213(0) B214(2)
 B215(0) B216(0) B217(0) B218(2) B219(0) B220(0) B221(0) B222(0) B223(2)
 B224(0) B225(0) B226(0) B227(0) B228(0) B229(0) B230(2) B231(2) B232(2)
 B233(0) B234(2) B235(0) B236(0) B237(0) B238(0) B239(2) B240(0) B241(0)
 B242(0) B243(2) B244(0) B245(0) B246(0) B247(0) B248(2) B249(0) B250(0)
 B251(0) B252(0) B253(0) B254(0) B255(2) B256(2) B257(2) B258(2) B259(0)
 B260(0) B261(0) B262(0) B263(0) B264(2) B265(0) B266(0) B267(0) B268(2)
 B269(0) B270(0) B271(0) B272(0) B273(2) B274(0) B275(0) B276(0) B277(0)
 B278(0) B279(0) B280(0) B281(0) B282(0) B283(0) B284(0) B285(0) B286(0)
 B287(2) B288(0) B289(0) B290(0) B291(0) B292(2) B293(0) B294(2) B295(2)
 B296(2) B297(0) B298(0) B299(0) B300(0) B301(0) B302(0) B303(0) B304(0)
 B305(0) B306(0) B307(0) B308(0) B309(0) B310(0) B311(0) B312(0) B313(2)
 B314(0) B315(2) B316(2) B317(0) B318(0) B319(0) B320(0) B321(0) B322(2)
 B323(0) B324(2) B325(0) B326(0) B327(0) B328(0) B329(0) B330(0) B331(0)
 B332(0) B333(0) B334(0) B335(2) B336(0) B337(0) B338(0) B339(0) B340(0)
 B341(0) B342(2) B343(0) B344(2) B345(2) B346(2) B347(0) B348(0) B349(0)
 B350(0) B351(0) B352(0) B353(0) B354(0) B355(0) B356(0) B357(0) B358(0)
 B359(0) B360(0) B361(2) B362(0) B363(0) B364(0) B365(2) B366(2) B367(0)
 B368(0) B369(0) B370(0) B371(0) B372(2) B373(0) B374(2) B375(0) B376(0)
 B377(0) B378(0) B379(0) B380(0) B381(0) B382(0) B383(0) B384(0) B385(0)
 B386(0) B387(0) B388(0) B389(0) B390(0) B391(0) B392(0) B393(2) B394(0)
 B395(0) B396(0) B397(0) B398(2) B399(0) B400(0) B401(0) B402(0) B403(0)
 B404(0) B405(0) B406(0) B407(0) B408(0) B409(0) B410(0) B411(0) B412(0)
 B413(0) B414(0) B415(0) B416(2) B417(0) B418(0) B419(0) B420(0) B421(0)
 B422(2) B423(0) B424(2) B425(0) B426(0) B427(0) B428(0) B429(0) B430(0)
 B431(0) B432(0) B433(0) B434(0) B435(0) B436(0) B437(0) B438(0) B439(0)
 B440(2) B441(0) B442(0) B443(0) B444(0) B445(0) B446(0) B447(2) B448(0)
 B449(2) B450(0) B451(0) B452(0) B453(0) B454(0) B455(0) B456(0) B457(0)
 B458(0) B459(0) B460(0) B461(0) B462(0) B463(0) B464(0) B465(0) B466(0)
 B467(0) B468(0) B469(2) B470(2) B471(2) B472(0) B473(0) B474(0) B475(0)
 B476(0) B477(0) B478(0) B479(0) B480(0) B481(0) B482(0) B483(0) B484(0)
 B485(0) B486(0) B487(0) B488(0) B489(0) B490(0) B491(0) B492(0) B493(0)
 B494(0) B495(0) B496(0) B497(0) B498(2) B499(0) B500(0) B501(0) B502(0)
 B503(0) B504(0) B505(0) B506(0) B507(0) B508(0) B509(0) B510(0) B511(0)
 B512(0) B513(0) B514(0) B515(0) B516(0) B517(2) B518(0) B519(0) B520(2)
 B521(2) B522(0) B523(0) B524(0) B525(0) B526(0) B527(0) B528(0) B529(0)
 B530(0) B531(0) B532(0) B533(0) B534(0) B535(0) B536(0) B537(0) B538(0)
 B539(0) B540(0) B541(0) B542(0) B543(0) B544(0) B545(0) B546(2) B547(0)
 B548(0) B549(0) B550(0) B551(0) B552(0) B553(0) B554(0) B555(0) B556(0)
 B557(0) B558(0) B559(0) B560(0) B561(0) B562(0) B563(0) B564(0) B565(0)
 B566(0) B567(0) B568(0) B569(0) B570(2) B571(0) B572(0) B573(0) B574(0)
 B575(0) B576(0) B577(0) B578(0) B579(0) B580(0) B581(0) B582(0) B583(0)
 B584(0) B585(0) B586(0) B587(0) B588(0) B589(0) B590(0) B591(0) B592(0)
 B593(0) B594(0) B595(0) B596(0) B597(0) B598(0) B599(2) B600(0) B601(0)
 B602(0) B603(0) B604(0) B605(0) B606(0) B607(0) B608(0) B609(0) B610(0)
 B611(0) B612(0) B613(0) B614(0) B615(0) B616(0) B617(0) B618(0) B619(0)
 B620(0) B621(0) B622(0) B623(0) B624(0) B625(0) B626(0) B627(0) B628(0)
 B629(0) B630(0) B631(0) B632(0) B633(0) B634(0) B635(0) B636(0) B637(0)
 B638(0) B639(0) B640(0) B641(0) B642(0) B643(0) B644(0) B645(0) B646(0)
 B647(2) B648(0) B649(0)
Generals
 I675(1)
End
